c 22_4_checker_5cl.cnf
c
c field = 22
c formula set type = 4_checker_5cl
c
p cnf 5 6
12 
72 
102 
132 
-162 
13 
73 
103 
133 
-163 
10 
74 
106 
138 
-170 
11 
75 
107 
139 
-171 
14 
70 
98 
126 
-154 
15 
71 
99 
127 
-155 
